# Objective value = 1.9518803626393210e+03
x[0] 0
x[1] 1
x[2] 1
x[3] 1
x[4] 1
x[5] 0
x[6] 1
x[7] 1
x[8] 0
x[9] 0
x[10] 0
x[11] 0
x[12] 0
x[13] 1
x[14] 1
x[15] 1
x[16] 1
x[17] 0
x[18] 0
x[19] 1
x[20] 0
x[21] 0
x[22] 1
x[23] 1
x[24] 1
x[25] 0
x[26] 0
x[27] 0
x[28] 1
x[29] 1
x[30] 0
x[31] 1
x[32] 1
x[33] 0
x[34] 0
x[35] 0
x[36] 1
x[37] 0
x[38] 1
x[39] 0
x[40] 1
x[41] 1
x[42] 0
x[43] 0
x[44] 0
x[45] 1
x[46] 0
x[47] 1
x[48] 1
x[49] 0
x[50] 1
x[51] 0
x[52] 1
x[53] 1
x[54] 1
x[55] 0
x[56] 0
x[57] 0
x[58] 0
x[59] 0
x[60] 1
x[61] 1
x[62] 1
x[63] 0
x[64] 1
x[65] 0
x[66] 0
x[67] 1
x[68] 0
x[69] 1
x[70] 0
x[71] 1
x[72] 0
x[73] 0
x[74] 1
x[75] 1
x[76] 1
x[77] 0
x[78] 0
x[79] 1
x[80] 0
x[81] 0
x[82] 1
x[83] 0
x[84] 1
x[85] 1
x[86] 0
x[87] 1
x[88] 0
x[89] 0
x[90] 0
x[91] 1
x[92] 1
x[93] 1
x[94] 1
x[95] 0
x[96] 1
x[97] 0
x[98] 0
x[99] 0
x[100] 0
x[101] 1
x[102] 0
x[103] 1
x[104] 0
x[105] 1
x[106] 1
x[107] 0
x[108] 1
x[109] 1
x[110] 0
x[111] 1
x[112] 0
x[113] 1
x[114] 1
x[115] 0
x[116] 0
x[117] 1
x[118] 1
x[119] 1
x[120] 0
x[121] 1
x[122] 1
x[123] 1
x[124] 1
x[125] 1
x[126] 0
x[127] 1
x[128] 0
x[129] 1
x[130] 0
x[131] 1
x[132] 1
x[133] 1
x[134] 0
x[135] 0
x[136] 0
x[137] 1
x[138] 1
x[139] 1
x[140] 1
x[141] 1
x[142] 0
x[143] 1
x[144] 0
x[145] 1
x[146] 0
x[147] 1
x[148] 0
x[149] 0
x[150] 0
x[151] 1
x[152] 0
x[153] 1
x[154] 1
x[155] 1
x[156] 1
x[157] 1
x[158] 0
x[159] 1
x[160] 0
x[161] 1
x[162] 1
x[163] 1
x[164] 1
x[165] 1
x[166] 0
x[167] 0
x[168] 1
x[169] 1
x[170] 1
x[171] 0
x[172] 0
x[173] 0
x[174] 0
x[175] 1
x[176] 0
x[177] 0
x[178] 0
x[179] 0
x[180] 1
x[181] 0
x[182] 0
x[183] 1
x[184] 0
x[185] 0
x[186] 1
x[187] 1
x[188] 1
x[189] 1
x[190] 0
x[191] 1
x[192] 0
x[193] 1
x[194] 1
x[195] 1
x[196] 1
x[197] 1
x[198] 1
x[199] 1
x[200] 1
x[201] 1
x[202] 1
x[203] 0
x[204] 0
x[205] 0
x[206] 1
x[207] 1
x[208] 0
x[209] 0
x[210] 1
x[211] 0
x[212] 1
x[213] 1
x[214] 1
x[215] 1
x[216] 0
x[217] 0
x[218] 1
x[219] 0
x[220] 0
x[221] 1
x[222] 1
x[223] 1
x[224] 1
x[225] 0
x[226] 1
x[227] 1
x[228] 0
x[229] 0
x[230] 0
x[231] 1
x[232] 0
x[233] 0
x[234] 1
x[235] 1
x[236] 1
x[237] 0
x[238] 1
x[239] 0
x[240] 0
x[241] 1
x[242] 1
x[243] 1
x[244] 0
x[245] 0
x[246] 1
x[247] 1
x[248] 1
x[249] 1
x[250] 1
x[251] 0
x[252] 0
x[253] 1
x[254] 0
x[255] 1
x[256] 1
x[257] 0
x[258] 0
x[259] 1
x[260] 0
x[261] 1
x[262] 0
x[263] 1
x[264] 1
x[265] 0
x[266] 0
x[267] 1
x[268] 0
x[269] 0
x[270] 0
x[271] 0
x[272] 0
x[273] 0
x[274] 0
x[275] 0
x[276] 0
x[277] 1
x[278] 0
x[279] 0
x[280] 0
x[281] 1
x[282] 1
x[283] 1
x[284] 1
x[285] 1
x[286] 1
x[287] 0
x[288] 0
x[289] 1
x[290] 1
x[291] 1
x[292] 1
x[293] 1
x[294] 0
x[295] 1
x[296] 0
x[297] 1
x[298] 1
x[299] 1
x[300] 0
x[301] 0
x[302] 1
x[303] 0
x[304] 1
x[305] 1
x[306] 0
x[307] 0
x[308] 0
x[309] 1
x[310] 1
x[311] 0
x[312] 1
x[313] 0
x[314] 0
x[315] 0
x[316] 0
x[317] 0
x[318] 1
x[319] 1
x[320] 0
x[321] 1
x[322] 0
x[323] 1
x[324] 1
x[325] 0
x[326] 1
x[327] 1
x[328] 1
x[329] 0
x[330] 0
x[331] 0
x[332] 1
x[333] 0
x[334] 1
x[335] 1
x[336] 1
x[337] 1
x[338] 0
x[339] 1
x[340] 0
x[341] 0
x[342] 0
x[343] 0
x[344] 0
x[345] 0
x[346] 1
x[347] 1
x[348] 0
x[349] 1
x[350] 1
x[351] 0
x[352] 1
x[353] 0
x[354] 0
x[355] 1
x[356] 0
x[357] 1
x[358] 1
x[359] 0
x[360] 0
x[361] 0
x[362] 1
x[363] 0
x[364] 0
x[365] 1
x[366] 0
x[367] 1
x[368] 1
x[369] 0
x[370] 1
x[371] 1
x[372] 0
x[373] 0
x[374] 1
x[375] 1
x[376] 1
x[377] 1
x[378] 1
x[379] 0
x[380] 1
x[381] 1
x[382] 1
x[383] 1
x[384] 1
x[385] 1
x[386] 1
x[387] 1
x[388] 1
x[389] 0
x[390] 0
x[391] 1
x[392] 1
x[393] 1
x[394] 0
x[395] 1
x[396] 0
x[397] 0
x[398] 1
x[399] 1
x[400] 1
x[401] 1
x[402] 0
x[403] 1
x[404] 1
x[405] 0
x[406] 1
x[407] 1
x[408] 0
x[409] 1
x[410] 1
x[411] 0
x[412] 1
x[413] 0
x[414] 1
x[415] 1
x[416] 1
x[417] 0
x[418] 1
x[419] 0
x[420] 0
x[421] 1
x[422] 1
x[423] 0
x[424] 0
x[425] 1
x[426] 1
x[427] 1
x[428] 1
x[429] 1
x[430] 1
x[431] 0
x[432] 1
x[433] 1
x[434] 1
x[435] 0
x[436] 0
x[437] 1
x[438] 0
x[439] 0
x[440] 1
x[441] 0
x[442] 1
x[443] 0
x[444] 0
x[445] 1
x[446] 0
x[447] 0
x[448] 1
x[449] 1
x[450] 0
x[451] 1
x[452] 1
x[453] 0
x[454] 0
x[455] 0
x[456] 0
x[457] 1
x[458] 1
x[459] 0
x[460] 0
x[461] 0
x[462] 1
x[463] 1
x[464] 1
x[465] 1
x[466] 0
x[467] 0
x[468] 1
x[469] 1
x[470] 0
x[471] 0
x[472] 1
x[473] 0
x[474] 1
x[475] 0
x[476] 0
x[477] 0
x[478] 0
x[479] 0
x[480] 1
x[481] 1
x[482] 0
x[483] 0
x[484] 0
x[485] 1
x[486] 1
x[487] 0
x[488] 0
x[489] 0
x[490] 1
x[491] 0
x[492] 0
x[493] 0
x[494] 1
x[495] 0
x[496] 0
x[497] 0
x[498] 1
x[499] 1
x[500] 0
x[501] 1
x[502] 0
x[503] 1
x[504] 0
x[505] 0
x[506] 1
x[507] 0
x[508] 1
x[509] 1
x[510] 0
x[511] 0
x[512] 1
x[513] 0
x[514] 1
x[515] 1
x[516] 1
x[517] 1
x[518] 1
x[519] 0
x[520] 1
x[521] 1
x[522] 0
x[523] 0
x[524] 1
x[525] 1
x[526] 0
x[527] 1
x[528] 1
x[529] 1
x[530] 0
x[531] 0
x[532] 1
x[533] 0
x[534] 1
x[535] 1
x[536] 0
x[537] 0
x[538] 0
x[539] 0
x[540] 1
x[541] 1
x[542] 1
x[543] 0
x[544] 1
x[545] 0
x[546] 1
x[547] 0
x[548] 1
x[549] 1
x[550] 0
x[551] 1
x[552] 0
x[553] 1
x[554] 1
x[555] 1
x[556] 1
x[557] 1
x[558] 1
x[559] 1
x[560] 1
x[561] 1
x[562] 1
x[563] 1
x[564] 0
x[565] 1
x[566] 1
x[567] 1
x[568] 1
x[569] 1
x[570] 0
x[571] 0
x[572] 0
x[573] 1
x[574] 0
x[575] 1
x[576] 1
x[577] 0
x[578] 0
x[579] 1
x[580] 0
x[581] 1
x[582] 0
x[583] 1
x[584] 1
x[585] 0
x[586] 1
x[587] 1
x[588] 0
x[589] 0
x[590] 1
x[591] 0
x[592] 1
x[593] 0
x[594] 1
x[595] 1
x[596] 0
x[597] 1
x[598] 1
x[599] 0
x[600] 1
x[601] 1
x[602] 0
x[603] 0
x[604] 1
x[605] 0
x[606] 1
x[607] 1
x[608] 0
x[609] 1
x[610] 0
x[611] 1
x[612] 1
x[613] 0
x[614] 0
x[615] 1
x[616] 1
x[617] 1
x[618] 0
x[619] 0
x[620] 0
x[621] 1
x[622] 0
x[623] 0
x[624] 1
x[625] 1
x[626] 1
x[627] 1
x[628] 1
x[629] 0
x[630] 0
x[631] 1
x[632] 1
x[633] 0
x[634] 1
x[635] 1
x[636] 0
x[637] 0
x[638] 1
x[639] 0
x[640] 1
x[641] 1
x[642] 1
x[643] 1
x[644] 0
x[645] 0
x[646] 1
x[647] 1
x[648] 1
x[649] 1
x[650] 1
x[651] 0
x[652] 1
x[653] 0
x[654] 1
x[655] 1
x[656] 0
x[657] 1
x[658] 1
x[659] 0
x[660] 1
x[661] 1
x[662] 0
x[663] 1
x[664] 1
x[665] 0
x[666] 1
x[667] 1
x[668] 1
x[669] 1
x[670] 1
x[671] 0
x[672] 1
x[673] 1
x[674] 1
x[675] 1
x[676] 1
x[677] 1
x[678] 0
x[679] 0
x[680] 0
x[681] 1
x[682] 1
x[683] 1
x[684] 0
x[685] 0
x[686] 1
x[687] 0
x[688] 1
x[689] 0
x[690] 0
x[691] 0
x[692] 1
x[693] 1
x[694] 1
x[695] 0
x[696] 0
x[697] 1
x[698] 1
x[699] 1
x[700] 0
x[701] 0
x[702] 0
x[703] 1
x[704] 1
x[705] 0
x[706] 0
x[707] 1
x[708] 1
x[709] 0
x[710] 1
x[711] 1
x[712] 0
x[713] 1
x[714] 0
x[715] 1
x[716] 0
x[717] 0
x[718] 1
x[719] 1
x[720] 0
x[721] 1
x[722] 1
x[723] 1
x[724] 1
x[725] 1
x[726] 1
x[727] 1
x[728] 0
x[729] 1
x[730] 1
x[731] 1
x[732] 1
x[733] 1
x[734] 1
x[735] 1
x[736] 0
x[737] 0
x[738] 0
x[739] 1
x[740] 1
x[741] 1
x[742] 0
x[743] 1
x[744] 0
x[745] 1
x[746] 1
x[747] 0
x[748] 1
x[749] 1
x[750] 0
x[751] 1
x[752] 0
x[753] 0
x[754] 1
x[755] 1
x[756] 0
x[757] 1
x[758] 1
x[759] 1
x[760] 0
x[761] 1
x[762] 1
x[763] 1
x[764] 1
x[765] 1
x[766] 1
x[767] 0
x[768] 1
x[769] 0
x[770] 0
x[771] 0
x[772] 1
x[773] 1
x[774] 0
x[775] 0
x[776] 1
x[777] 1
x[778] 0
x[779] 1
x[780] 0
x[781] 0
x[782] 1
x[783] 1
x[784] 0
x[785] 1
x[786] 1
x[787] 1
x[788] 1
x[789] 0
x[790] 0
x[791] 1
x[792] 1
x[793] 0
x[794] 0
x[795] 1
x[796] 1
x[797] 1
x[798] 0
x[799] 1
x[800] 0
x[801] 1
x[802] 0
x[803] 1
x[804] 1
x[805] 1
x[806] 1
x[807] 1
x[808] 0
x[809] 0
x[810] 0
x[811] 1
x[812] 0
x[813] 1
x[814] 1
x[815] 0
x[816] 1
x[817] 0
x[818] 0
x[819] 0
x[820] 1
x[821] 1
x[822] 0
x[823] 1
x[824] 0
x[825] 0
x[826] 0
x[827] 0
x[828] 0
x[829] 1
x[830] 1
x[831] 0
x[832] 1
x[833] 1
x[834] 0
x[835] 0
x[836] 0
x[837] 0
x[838] 1
x[839] 1
x[840] 1
x[841] 1
x[842] 1
x[843] 1
x[844] 1
x[845] 1
x[846] 1
x[847] 0
x[848] 1
x[849] 1
x[850] 0
x[851] 1
x[852] 1
x[853] 1
x[854] 0
x[855] 1
x[856] 1
x[857] 1
x[858] 1
x[859] 1
x[860] 1
x[861] 1
x[862] 0
x[863] 1
x[864] 1
x[865] 1
x[866] 1
x[867] 0
x[868] 1
x[869] 1
x[870] 1
x[871] 1
x[872] 0
x[873] 1
x[874] 0
x[875] 0
x[876] 0
x[877] 0
x[878] 1
x[879] 0
x[880] 0
x[881] 0
x[882] 1
x[883] 0
x[884] 0
x[885] 1
x[886] 1
x[887] 1
x[888] 1
x[889] 1
x[890] 0
x[891] 1
x[892] 0
x[893] 0
x[894] 0
x[895] 0
x[896] 0
x[897] 1
x[898] 1
x[899] 1
x[900] 1
x[901] 1
x[902] 0
x[903] 0
x[904] 0
x[905] 0
x[906] 0
x[907] 1
x[908] 0
x[909] 1
x[910] 0
x[911] 1
x[912] 1
x[913] 1
x[914] 1
x[915] 1
x[916] 1
x[917] 0
x[918] 1
x[919] 0
x[920] 1
x[921] 1
x[922] 1
x[923] 1
x[924] 1
x[925] 1
x[926] 0
x[927] 1
x[928] 0
x[929] 1
x[930] 1
x[931] 0
x[932] 1
x[933] 0
x[934] 0
x[935] 1
x[936] 0
x[937] 1
x[938] 1
x[939] 0
x[940] 0
x[941] 0
x[942] 0
x[943] 1
x[944] 0
x[945] 1
x[946] 1
x[947] 1
x[948] 1
x[949] 0
x[950] 0
x[951] 1
x[952] 1
x[953] 0
x[954] 0
x[955] 1
x[956] 0
x[957] 1
x[958] 1
x[959] 1
x[960] 0
x[961] 1
x[962] 0
x[963] 0
x[964] 1
x[965] 0
x[966] 1
x[967] 1
x[968] 0
x[969] 1
x[970] 1
x[971] 0
x[972] 1
x[973] 0
x[974] 0
x[975] 1
x[976] 1
x[977] 1
x[978] 1
x[979] 1
x[980] 0
x[981] 1
x[982] 0
x[983] 1
x[984] 1
x[985] 1
x[986] 1
x[987] 1
x[988] 1
x[989] 1
x[990] 0
x[991] 0
x[992] 1
x[993] 0
x[994] 0
x[995] 1
x[996] 0
x[997] 0
x[998] 0
x[999] 1
